data;
param buildData: area    start   duration:=
B1              10000       2       10       
B2              7500        9       8     
B3              12000       4       12  ;
param: LINKS: buildCost(tr): 
    B1      B2      B3:=
1   0       .       .    
2   90000   .       .           # 0 to expand the range of LINKS for cost accounting (advertising) (2 months before the start of sales)
3   135000  .       0    
4   180000  .       129600
5   270000  .       194400
6   720000  .       259200
7   675000  .       712800
8   675000  0       712800       
9   675000  114000  712800
10  540000  256500  712800
11  540000  456000  712800
12  .       456000  648000
13  .       427500  648000
14  .       427500  518400
15  .       370500  518400
16  .       342000  .   ;

param basePrice(tr): 
    B1      B2      B3:=
1   450     .       .    
2   450     .       .
3   460     .       540    
4   470     .       540
5   480     .       550
6   490     .       560
7   505     .       570
8   520     380     580       
9   535     390     590
10  550     400     605
11  565     415     615
12  .       430     625
13  .       445     635
14  .       460     645
15  .       475     655
16  .       490     .   ;

param NomArea:=
B1   0.1
B2   0.11
B3   0.08;

param nStep := 9;

param: priceStep    demandCoef:= 
10      1.5         .
9       0.8         2 
8       0.85        1.8
7       0.9         1.5
6       0.95        1.3    
5       1           1
4       1.05        0.8
3       1.1         0.5
2       1.15        0.2
1       1.2         0.1;       

param SeasonalEffect :=
1   1
2   1
3   1
4   0.94
5   0.94
6   0.95
7   1.05    
8   1.05
9   1.08
10  1.08
11  1.1
12  1.2
13  1
14  1
15  1
16  0.94  ; 

param adEff:= 
B1   9
B2   8
B3   7 ;

param depData:  'term'    'freq_payment'   'refill'  'first_money'  'interest'    'capit_on' :=
I                   1       1              1            500          3.5         1           
III                 3       3              1            1000         4           1           
VI                  6       3              1            2000         4.5         1          
XII                 12      6              1            10000        5           0  ;     

param MoneyWithdrawn :=
1   0
2   12500
3   3500
4   3500
5   3500
6   3500
7   3500    
8   36000
9   3500
10  3500
11  3500
12  3500
13  3500
14  3500
15  3500
16  3500   ;

set AVAIL:  I   III     VI      XII  :=
    1       +   +       -       -
    2       +   +       -       -       
    3       +   +       -       -       
    4       +   +       +       +         
    5       +   +       +       +       
    6       +   +       +       +
    7       +   +       +       +
    8       +   +       +       +
    9       +   +       +       +
    10      +   +       +       +
    11      +   +       +       +
    12      +   +       +       +
    13      +   +       +       +
    14      -   -       +       +
    15      -   -       +       +
    16      -   -       +       +   ;  